1060.46,53.4,64.0
1033.48,54.79,65.67
1011.53,55.98,67.09
1177.3,48.1,57.65
1167.27,48.51,58.14
1101.47,51.41,61.61
1092.45,51.83,62.12
1099.91,51.48,61.7
1063.17,53.26,63.83
1061.06,53.37,63.96
960.82,58.93,70.63
1043.66,54.26,65.03
999.93,56.63,67.87
1097.47,51.6,61.84
1242.63,45.57,54.61
1229.88,46.04,55.18
1128.58,50.17,60.13
1051.47,53.85,64.54
1093.12,51.8,62.08
959.44,59.02,70.73
